6889
6875
6988
6914
6908
6877
6944
6942
6965
7012
6957
6979
6798
6853
6857
6987
6989
6866
6820
6747
6971
6966
6987
6856
7052
6906
6981
6913
6866
6958
6901
6908
6943
6861
7013
6971
6912
6878
6914
6895
6900
6891
6929
6938
6908
6834
6946
6884
6955
6972
6909
6828
6954
6979
6916
6902
6913
6980
6937
6949
6964
6976
6895
6928
6870
6936
6965
6944
6901
6970
6789
7037
6821
6986
6889
6928
6779
6869
6854
7057
6925
6957
6914
6911
6908
6975
6934
6974
7079
6973
7025
6881
6867
6987
7044
6908
6841
6899
6914
6728
